letting n =  10
letting blocks =  [[1, 1], [1, 2], [1, 6], [1, 7], [1, 8], [1, 9], [2, 1], [2, 2], [2, 3], [2, 5], [2, 7], [2, 9], [3, 5], [3, 6], [3, 8], [3, 9], [3, 10], [4, 3], [4, 4], [4, 5], [4, 6], [4, 8], [4, 10], [5, 4], [5, 5], [5, 6], [5, 8], [6, 1], [6, 2], [6, 4], [6, 7], [6, 9], [7, 2], [7, 3], [7, 7], [7, 9], [7, 10], [8, 3], [8, 4], [8, 6], [8, 9], [9, 2], [9, 3], [9, 4], [9, 5], [9, 7], [10, 2], [10, 3], [10, 4], [10, 5], [10, 7], [10, 8]]
